50
1 328 199
2 288 428
3 160 495
4 429 382
5 422 467
6 448 367
7 107 404
8 191 134
9 437 83
10 282 204
11 324 52
12 395 414
13 218 380
14 344 350
15 87 403
16 346 121
17 278 221
18 333 433
19 5 258
20 9 462
21 48 392
22 235 90
23 133 344
24 287 223
25 98 105
26 200 216
27 495 317
28 296 488
29 385 405
30 410 252
31 115 215
32 198 475
33 120 493
34 135 253
35 16 391
36 86 125
37 215 450
38 472 118
39 1 200
40 473 204
41 492 308
42 467 91
43 152 165
44 221 407
45 288 120
46 83 465
47 432 347
48 191 486
49 31 117
50 331 49
